GeneratedTests/Random_10/Random_10_15.tsp
NAME: Random_10_15
TYPE: TSP
DIMENSION: 10
EDGE_WEIGHT_TYPE: EUC_2D
NODE_COORD_SECTION
1 11.44902 0.14430285
2 18.66751 0.019476414
3 13.33691 28.084513
4 0.08917451 0.3425628
5 1.8672538 2.335453
6 12.760187 23.39927
7 22.492636 10.149859
8 6.6042175 5.120142
9 28.769957 13.869589
10 21.674223 20.44328
EOF
