GeneratedTests/Random_10/Random_10_15.txt
NAME: Random_10_15
TYPE: TSP
DIMENSION: 10
EDGE_WEIGHT_TYPE: EUC_2D
NODE_COORD_SECTION
1 4.6735115 23.533272
2 26.703396 2.9105206
3 16.903019 21.764175
4 6.010956 29.659576
5 17.649939 10.810339
6 0.33805132 13.822299
7 21.142614 21.785559
8 1.5206391 25.779064
9 28.918495 7.229637
10 29.1781 25.15533
EOF
